FILENAME:   /home/mcs001/s132664/testsets/IP/miplib2017/neos-873061.mps.gz
SETTINGS:   settings_isopr_minimalindexbranching_avoidsubtreenodes
TIMELIMIT:  7200
OUTPUTNAME: final_miplib_symretope_if_extended_generating_set_cpx_v802__settings_isopr_minimalindexbranching_avoidsubtreenodes__1__
BINNAME:    bin/symmetries.linux.x86_64.gnu.opt.cpx
BASENAME:   neos-873061.mps.gz
SEED:       1
@01 /home/mcs001/s132664/testsets/IP/miplib2017/neos-873061.mps.gz ===========
@02 neos-873061.mps.gz
@03 1686566722
SCIP version 8.0.2 [precision: 8 byte] [memory: block] [mode: optimized] [LP solver: CPLEX 20.1.0.0] [GitHash: 5f0473c]
Copyright (C) 2002-2022 Konrad-Zuse-Zentrum fuer Informationstechnik Berlin (ZIB)

Symmetry handling routines - (c) Marc Pfetsch, Thomas Rehn, Christopher Hojny.
[GitHash: a1587cb]


Turned off presolver <gateextraction>.
reading parameter file <../settings/settings_isopr_minimalindexbranching_avoidsubtreenodes.set> ...

Changed settings:
limits/time = 7200
limits/restarts = 0
randomization/randomseedshift = 1
constraints/orbitope/sepafreq = -1
constraints/orbitope/propfreq = 1
presolving/gateextraction/maxrounds = 0
propagating/isoprune/avoidsubtreenodes = TRUE
useisoprune = TRUE
usebranchfirst = TRUE


solving problem ...

original problem has 175288 variables (87644 bin, 0 int, 0 impl, 87644 cont) and 93360 constraints
presolving:
(round 1, fast)       852 del vars, 871 del conss, 0 add conss, 156 chg bounds, 0 chg sides, 224 chg coeffs, 0 upgd conss, 0 impls, 0 clqs
(round 2, fast)       1300 del vars, 1736 del conss, 0 add conss, 156 chg bounds, 0 chg sides, 224 chg coeffs, 0 upgd conss, 0 impls, 0 clqs
(round 3, fast)       2531 del vars, 2529 del conss, 0 add conss, 156 chg bounds, 0 chg sides, 224 chg coeffs, 0 upgd conss, 0 impls, 0 clqs
(round 4, fast)       3336 del vars, 2555 del conss, 0 add conss, 156 chg bounds, 0 chg sides, 224 chg coeffs, 0 upgd conss, 0 impls, 0 clqs
(round 5, exhaustive) 3362 del vars, 2555 del conss, 0 add conss, 156 chg bounds, 0 chg sides, 224 chg coeffs, 85958 upgd conss, 0 impls, 0 clqs
   (2.8s) probing: 51/85992 (0.1%) - 0 fixings, 0 aggregations, 0 implications, 0 bound changes
   (2.8s) probing aborted: 50/50 successive totally useless probings
Required symmetry:			(1 bin, 0 int, 0 cont); (fixed: 0 bin, 1 int, 0 cont)
Time for symmetry detection:		2.46 	(matrix graph, 444396 nodes, 687704 edges)
Number of generators:			110 	(max: 372)
Log10 of symmetry group order:		43.3
Number of vars moved by some symmetry:	12048
Total time for symmetry detection:	3.04

Turned off presolver <domcol>.
Turned off presolver <components>.

presolving (6 rounds: 6 fast, 2 medium, 2 exhaustive):
 3362 deleted vars, 2555 deleted constraints, 0 added constraints, 156 tightened bounds, 0 added holes, 0 changed sides, 224 changed coefficients
 85958 implications, 0 cliques
presolved problem has 171926 variables (85992 bin, 0 int, 0 impl, 85934 cont) and 90806 constraints
  85958 constraints of type <varbound>
   4847 constraints of type <linear>
      1 constraints of type <symmetries>
Presolving Time: 5.57

 time | node  | left  |LP iter|LP it/n|mem/heur|mdpt |frac |vars |cons |cols |rows |cuts |confs|strbr|  dualbound   | primalbound  |  gap   
p 8.5s|     1 |     0 | 10059 |     - |shiftand|   0 |   - | 171k|  90k| 171k|  90k|   0 |   0 |   0 | 0.000000e+00 | 2.511331e+05 |    Inf 
i 8.8s|     1 |     0 | 10059 |     - |  oneopt|   0 |   - | 171k|  90k| 171k|  90k|   0 |   0 |   0 | 0.000000e+00 | 1.187331e+05 |    Inf 
 13.8s|     1 |     0 | 13958 |     - |  1363M |   0 |  92 | 171k|  90k| 171k|  90k|   0 |   0 |   0 | 9.591050e+01 | 1.187331e+05 |  Large 
r13.9s|     1 |     0 | 13958 |     - |simplero|   0 |  92 | 171k|  90k| 171k|  90k|   0 |   0 |   0 | 9.591050e+01 | 1.260301e+02 |  31.40%
L 113s|     1 |     0 | 39156 |     - |    rens|   0 |  92 | 171k|  90k| 171k|  90k|   0 |   0 |   0 | 9.591050e+01 | 1.237637e+02 |  29.04%
  114s|     1 |     0 | 39156 |     - |  1485M |   0 |  92 | 171k|  90k| 171k|  90k|   0 |   0 |   0 | 9.591050e+01 | 1.237637e+02 |  29.04%
  171s|     1 |     2 | 39156 |     - |  1485M |   0 |  92 | 171k|  90k| 171k|  90k|   0 |   0 |   0 | 9.591050e+01 | 1.237637e+02 |  29.04%
r 173s|     6 |     5 | 39699 |7160.0 |simplero|   4 |  84 | 171k|  90k| 171k|  90k|   0 |   0 |   0 | 9.591050e+01 | 1.237020e+02 |  28.98%
r 174s|     7 |     6 | 39708 |5968.2 |simplero|   5 |  85 | 171k|  90k| 171k|  90k|   0 |   0 |   0 | 9.591050e+01 | 1.237016e+02 |  28.98%
r 174s|     9 |     8 | 39710 |4476.4 |simplero|   7 |  85 | 171k|  90k| 171k|  90k|   0 |   0 |   0 | 9.591050e+01 | 1.236617e+02 |  28.93%
r 191s|    23 |    22 | 42661 |1761.9 |simplero|  19 |  76 | 171k|  90k| 171k|  90k|   0 |   0 |   0 | 9.591050e+01 | 1.236484e+02 |  28.92%
r 193s|    24 |    23 | 42663 |1685.4 |simplero|  19 |  75 | 171k|  90k| 171k|  90k|   0 |   0 |   0 | 9.591050e+01 | 1.236474e+02 |  28.92%
 1234s|   100 |   101 |232057 |2304.6 |  1761M |  32 | 115 | 171k|  90k| 171k|  90k|   0 |   2 |   0 | 9.591050e+01 | 1.236474e+02 |  28.92%
 1312s|   200 |   201 |247272 |1223.0 |  1786M |  41 | 117 | 171k|  90k| 171k|  90k|   0 |   5 |   0 | 9.591050e+01 | 1.236474e+02 |  28.92%
L1331s|   224 |   225 |250675 |1106.6 |    rins|  41 | 110 | 171k|  90k| 171k|  90k|   0 |   5 |   0 | 9.591050e+01 | 1.236464e+02 |  28.92%
 time | node  | left  |LP iter|LP it/n|mem/heur|mdpt |frac |vars |cons |cols |rows |cuts |confs|strbr|  dualbound   | primalbound  |  gap   
 1428s|   300 |   301 |257941 | 849.6 |  1792M |  41 | 110 | 171k|  90k| 171k|  90k|   0 |   8 |   0 | 9.591050e+01 | 1.236464e+02 |  28.92%
 1490s|   400 |   401 |273349 | 675.3 |  1808M |  41 | 115 | 171k|  90k| 171k|  90k|   0 |   9 |   0 | 9.591050e+01 | 1.236464e+02 |  28.92%
L1527s|   445 |   446 |283258 | 629.2 |    rins|  41 | 107 | 171k|  90k| 171k|  90k|   0 |  10 |   0 | 9.591050e+01 | 1.236462e+02 |  28.92%
 1739s|   500 |   501 |290427 | 574.2 |  1822M |  41 | 113 | 171k|  90k| 171k|  90k|   0 |  11 |   0 | 9.591050e+01 | 1.236462e+02 |  28.92%
 1792s|   600 |   601 |309711 | 510.5 |  1829M |  41 | 106 | 171k|  90k| 171k|  90k|   0 |  12 |   0 | 9.591050e+01 | 1.236462e+02 |  28.92%
 1939s|   700 |   701 |349772 | 494.8 |  1838M |  41 | 106 | 171k|  90k| 171k|  90k|   0 |  13 |   0 | 9.591050e+01 | 1.236462e+02 |  28.92%
 2020s|   800 |   801 |373292 | 462.3 |  1846M |  41 | 106 | 171k|  90k| 171k|  90k|   0 |  17 |   0 | 9.591050e+01 | 1.236462e+02 |  28.92%
 2058s|   900 |   901 |382313 | 420.9 |  1852M |  41 | 107 | 171k|  90k| 171k|  90k|   0 |  21 |   0 | 9.593644e+01 | 1.236462e+02 |  28.88%
 2134s|  1000 |  1001 |403296 | 399.8 |  1858M |  41 | 105 | 171k|  90k| 171k|  90k|   0 |  23 |   0 | 9.593644e+01 | 1.236462e+02 |  28.88%
 2220s|  1100 |  1101 |427558 | 385.5 |  1867M |  41 |  96 | 171k|  90k| 171k|  90k|   0 |  27 |   0 | 9.593686e+01 | 1.236462e+02 |  28.88%
 2261s|  1200 |  1201 |440490 | 364.1 |  1873M |  41 | 109 | 171k|  90k| 171k|  90k|   0 |  31 |   0 | 9.593686e+01 | 1.236462e+02 |  28.88%
 2296s|  1300 |  1301 |449394 | 343.0 |  1879M |  41 | 105 | 171k|  90k| 171k|  90k|   0 |  37 |   0 | 9.593686e+01 | 1.236462e+02 |  28.88%
 2383s|  1400 |  1401 |474335 | 336.3 |  1886M |  41 |  88 | 171k|  90k| 171k|  90k|   0 |  39 |   0 | 9.593686e+01 | 1.236462e+02 |  28.88%
 2409s|  1500 |  1501 |477215 | 315.8 |  1892M |  41 |  74 | 171k|  90k| 171k|  90k|   0 |  40 |   0 | 9.593706e+01 | 1.236462e+02 |  28.88%
 2482s|  1600 |  1601 |497325 | 308.6 |  1898M |  41 | 107 | 171k|  90k| 171k|  90k|   0 |  41 |   0 | 9.593706e+01 | 1.236462e+02 |  28.88%
 time | node  | left  |LP iter|LP it/n|mem/heur|mdpt |frac |vars |cons |cols |rows |cuts |confs|strbr|  dualbound   | primalbound  |  gap   
 2525s|  1700 |  1701 |510887 | 298.4 |  1904M |  41 |  81 | 171k|  90k| 171k|  90k|   0 |  42 |   0 | 9.593707e+01 | 1.236462e+02 |  28.88%
 2565s|  1800 |  1801 |515104 | 284.2 |  1911M |  41 | 107 | 171k|  90k| 171k|  90k|   0 |  42 |   0 | 9.593708e+01 | 1.236462e+02 |  28.88%
 2589s|  1900 |  1901 |520219 | 271.9 |  1918M |  41 | 113 | 171k|  90k| 171k|  90k|   0 |  44 |   0 | 9.593708e+01 | 1.236462e+02 |  28.88%
 2620s|  2000 |  2001 |528040 | 262.2 |  1924M |  41 | 111 | 171k|  90k| 171k|  90k|   0 |  45 |   0 | 9.593708e+01 | 1.236462e+02 |  28.88%
 2641s|  2100 |  2101 |531391 | 251.3 |  1931M |  41 | 107 | 171k|  90k| 171k|  90k|   0 |  46 |   0 | 9.593708e+01 | 1.236462e+02 |  28.88%
 2671s|  2200 |  2201 |540261 | 243.9 |  1938M |  41 | 111 | 171k|  90k| 171k|  90k|   0 |  46 |   0 | 9.593708e+01 | 1.236462e+02 |  28.88%
 2699s|  2300 |  2301 |546511 | 236.0 |  1944M |  41 | 108 | 171k|  90k| 171k|  90k|   0 |  50 |   0 | 9.593708e+01 | 1.236462e+02 |  28.88%
 2728s|  2400 |  2401 |553286 | 229.0 |  1950M |  41 |  88 | 171k|  90k| 171k|  90k|   0 |  51 |   0 | 9.593708e+01 | 1.236462e+02 |  28.88%
 2749s|  2500 |  2501 |556996 | 221.3 |  1956M |  41 | 112 | 171k|  90k| 171k|  90k|   0 |  52 |   0 | 9.593708e+01 | 1.236462e+02 |  28.88%
L2752s|  2511 |  2512 |557038 | 220.4 |    rins|  41 | 107 | 171k|  90k| 171k|  90k|   0 |  52 |   0 | 9.593708e+01 | 1.236458e+02 |  28.88%
 2766s|  2600 |  2601 |558470 | 213.4 |  1962M |  41 |  85 | 171k|  90k| 171k|  90k|   0 |  52 |   0 | 9.593740e+01 | 1.236458e+02 |  28.88%
 2788s|  2700 |  2701 |562406 | 206.9 |  1969M |  41 |  72 | 171k|  90k| 171k|  90k|   0 |  53 |   0 | 9.593740e+01 | 1.236458e+02 |  28.88%
 2813s|  2800 |  2801 |567292 | 201.3 |  1975M |  41 | 108 | 171k|  90k| 171k|  90k|   0 |  58 |   0 | 9.593740e+01 | 1.236458e+02 |  28.88%
 2893s|  2900 |  2901 |588627 | 201.7 |  1981M |  41 | 113 | 171k|  90k| 171k|  90k|   0 |  59 |   0 | 9.593740e+01 | 1.236458e+02 |  28.88%
 2906s|  3000 |  3001 |589525 | 195.3 |  1987M |  49 | 105 | 171k|  90k| 171k|  90k|   0 |  59 |   0 | 9.593740e+01 | 1.236458e+02 |  28.88%
 time | node  | left  |LP iter|LP it/n|mem/heur|mdpt |frac |vars |cons |cols |rows |cuts |confs|strbr|  dualbound   | primalbound  |  gap   
 2922s|  3100 |  3101 |590524 | 189.3 |  1995M |  53 | 112 | 171k|  90k| 171k|  90k|   0 |  59 |   0 | 9.593740e+01 | 1.236458e+02 |  28.88%
 2935s|  3200 |  3201 |591894 | 183.8 |  2001M |  81 | 114 | 171k|  90k| 171k|  90k|   0 |  59 |   0 | 9.593740e+01 | 1.236458e+02 |  28.88%
 2954s|  3300 |  3301 |594432 | 179.0 |  2008M |  85 |  94 | 171k|  90k| 171k|  90k|   0 |  61 |   0 | 9.593740e+01 | 1.236458e+02 |  28.88%
 2973s|  3400 |  3401 |597615 | 174.7 |  2014M |  87 |  90 | 171k|  90k| 171k|  90k|   0 |  62 |   0 | 9.593740e+01 | 1.236458e+02 |  28.88%
 3010s|  3500 |  3501 |599192 | 170.1 |  2021M |  91 |  90 | 171k|  90k| 171k|  90k|   0 |  62 |   0 | 9.593740e+01 | 1.236458e+02 |  28.88%
 3025s|  3600 |  3601 |600760 | 165.8 |  2027M |  91 | 121 | 171k|  90k| 171k|  90k|   0 |  62 |   0 | 9.593740e+01 | 1.236458e+02 |  28.88%
 3066s|  3700 |  3701 |611677 | 164.3 |  2035M |  91 | 115 | 171k|  90k| 171k|  90k|   0 |  65 |   0 | 9.593740e+01 | 1.236458e+02 |  28.88%
 3078s|  3800 |  3801 |612629 | 160.2 |  2041M | 134 |  92 | 171k|  90k| 171k|  90k|   0 |  65 |   0 | 9.593740e+01 | 1.236458e+02 |  28.88%
 3104s|  3900 |  3901 |620377 | 158.1 |  2048M | 144 |  99 | 171k|  90k| 171k|  90k|   0 |  65 |   0 | 9.593740e+01 | 1.236458e+02 |  28.88%
 3118s|  4000 |  4001 |622151 | 154.6 |  2055M | 144 | 105 | 171k|  90k| 171k|  90k|   0 |  66 |   0 | 9.593740e+01 | 1.236458e+02 |  28.88%
L3131s|  4088 |  4089 |623075 | 151.5 |    rins| 144 | 104 | 171k|  90k| 171k|  90k|   0 |  66 |   0 | 9.593740e+01 | 1.235503e+02 |  28.78%
 3136s|  4100 |  4101 |624226 | 151.3 |  2062M | 144 |  99 | 171k|  90k| 171k|  90k|   0 |  66 |   0 | 9.593740e+01 | 1.235503e+02 |  28.78%
 3166s|  4200 |  4201 |633527 | 149.9 |  2068M | 144 |  97 | 171k|  90k| 171k|  90k|   0 |  67 |   0 | 9.593740e+01 | 1.235503e+02 |  28.78%
 3185s|  4300 |  4301 |636194 | 147.1 |  2074M | 144 | 107 | 171k|  90k| 171k|  90k|   0 |  68 |   0 | 9.593740e+01 | 1.235503e+02 |  28.78%
 3215s|  4400 |  4401 |640965 | 144.8 |  2081M | 144 |  72 | 171k|  90k| 171k|  90k|   0 |  70 |   0 | 9.593741e+01 | 1.235503e+02 |  28.78%
 time | node  | left  |LP iter|LP it/n|mem/heur|mdpt |frac |vars |cons |cols |rows |cuts |confs|strbr|  dualbound   | primalbound  |  gap   
 3256s|  4500 |  4501 |642509 | 141.9 |  2087M | 144 | 107 | 171k|  90k| 171k|  90k|   0 |  70 |   0 | 9.593741e+01 | 1.235503e+02 |  28.78%
 3302s|  4600 |  4601 |652097 | 140.9 |  2094M | 144 |  98 | 171k|  90k| 171k|  90k|   0 |  70 |   0 | 9.593741e+01 | 1.235503e+02 |  28.78%
 3326s|  4700 |  4701 |656277 | 138.8 |  2100M | 144 |  95 | 171k|  90k| 171k|  90k|   0 |  71 |   0 | 9.593741e+01 | 1.235503e+02 |  28.78%
 3343s|  4800 |  4801 |657885 | 136.3 |  2107M | 144 |  97 | 171k|  90k| 171k|  90k|   0 |  72 |   0 | 9.593742e+01 | 1.235503e+02 |  28.78%
 3362s|  4900 |  4901 |660368 | 134.0 |  2114M | 144 |  95 | 171k|  90k| 171k|  90k|   0 |  72 |   0 | 9.593743e+01 | 1.235503e+02 |  28.78%
 3378s|  5000 |  5001 |661801 | 131.6 |  2121M | 144 |  91 | 171k|  90k| 171k|  90k|   0 |  73 |   0 | 9.593743e+01 | 1.235503e+02 |  28.78%
 3399s|  5100 |  5101 |664518 | 129.6 |  2127M | 144 |  94 | 171k|  90k| 171k|  90k|   0 |  74 |   0 | 9.593743e+01 | 1.235503e+02 |  28.78%
 3424s|  5200 |  5201 |668943 | 127.9 |  2133M | 144 | 109 | 171k|  90k| 171k|  90k|   0 |  77 |   0 | 9.593743e+01 | 1.235503e+02 |  28.78%
 3512s|  5300 |  5301 |675650 | 126.8 |  2142M | 144 | 100 | 171k|  90k| 171k|  90k|   0 |  77 |   0 | 9.593743e+01 | 1.235503e+02 |  28.78%
 3529s|  5400 |  5401 |677827 | 124.8 |  2148M | 144 | 108 | 171k|  90k| 171k|  90k|   0 |  78 |   0 | 9.593743e+01 | 1.235503e+02 |  28.78%
 3544s|  5500 |  5501 |678914 | 122.8 |  2154M | 144 |  87 | 171k|  90k| 171k|  90k|   0 |  78 |   0 | 9.593743e+01 | 1.235503e+02 |  28.78%
 3598s|  5600 |  5601 |687993 | 122.2 |  2164M | 144 | 104 | 171k|  90k| 171k|  90k|   0 |  79 |   0 | 9.593743e+01 | 1.235503e+02 |  28.78%
 3616s|  5700 |  5701 |690109 | 120.4 |  2166M | 144 |  95 | 171k|  90k| 171k|  90k|   0 |  79 |   0 | 9.593743e+01 | 1.235503e+02 |  28.78%
 3636s|  5800 |  5801 |692358 | 118.7 |  2173M | 144 |  90 | 171k|  90k| 171k|  90k|   0 |  80 |   0 | 9.593743e+01 | 1.235503e+02 |  28.78%
 3670s|  5900 |  5901 |699215 | 117.9 |  2179M | 144 | 100 | 171k|  90k| 171k|  90k|   0 |  81 |   0 | 9.593743e+01 | 1.235503e+02 |  28.78%
 time | node  | left  |LP iter|LP it/n|mem/heur|mdpt |frac |vars |cons |cols |rows |cuts |confs|strbr|  dualbound   | primalbound  |  gap   
 3687s|  6000 |  6001 |701169 | 116.2 |  2185M | 144 | 106 | 171k|  90k| 171k|  90k|   0 |  82 |   0 | 9.593743e+01 | 1.235503e+02 |  28.78%
 3725s|  6100 |  6101 |702569 | 114.6 |  2191M | 144 | 104 | 171k|  90k| 171k|  90k|   0 |  82 |   0 | 9.593783e+01 | 1.235503e+02 |  28.78%
 3740s|  6200 |  6201 |703512 | 112.9 |  2199M | 144 |  99 | 171k|  90k| 171k|  90k|   0 |  82 |   0 | 9.593783e+01 | 1.235503e+02 |  28.78%
 3763s|  6300 |  6301 |706824 | 111.6 |  2205M | 144 | 100 | 171k|  90k| 171k|  90k|   0 |  83 |   0 | 9.593783e+01 | 1.235503e+02 |  28.78%
 3783s|  6400 |  6401 |709169 | 110.2 |  2211M | 144 |  97 | 171k|  90k| 171k|  90k|   0 |  85 |   0 | 9.593783e+01 | 1.235503e+02 |  28.78%
 3832s|  6500 |  6501 |721044 | 110.3 |  2223M | 144 | 110 | 171k|  90k| 171k|  90k|   0 |  86 |   0 | 9.593783e+01 | 1.235503e+02 |  28.78%
 3854s|  6600 |  6601 |723543 | 109.1 |  2225M | 144 | 102 | 171k|  90k| 171k|  90k|   0 |  88 |   0 | 9.593783e+01 | 1.235503e+02 |  28.78%
 3878s|  6700 |  6701 |727955 | 108.1 |  2231M | 144 |  97 | 171k|  90k| 171k|  90k|   0 |  88 |   0 | 9.593783e+01 | 1.235503e+02 |  28.78%
 3920s|  6800 |  6801 |730518 | 106.9 |  2237M | 144 |  73 | 171k|  90k| 171k|  90k|   0 |  89 |   0 | 9.593783e+01 | 1.235503e+02 |  28.78%
 3946s|  6900 |  6901 |735431 | 106.0 |  2243M | 144 | 110 | 171k|  90k| 171k|  90k|   0 |  90 |   0 | 9.593783e+01 | 1.235503e+02 |  28.78%
L3963s|  6977 |  6978 |737112 | 105.1 |    rins| 144 | 103 | 171k|  90k| 171k|  90k|   0 |  91 |   0 | 9.593783e+01 | 1.235456e+02 |  28.78%
 3967s|  7000 |  7001 |737354 | 104.8 |  2250M | 144 | 106 | 171k|  90k| 171k|  90k|   0 |  91 |   0 | 9.593783e+01 | 1.235456e+02 |  28.78%
 3984s|  7100 |  7101 |739216 | 103.6 |  2257M | 144 |  98 | 171k|  90k| 171k|  90k|   0 |  92 |   0 | 9.593783e+01 | 1.235456e+02 |  28.78%
 4010s|  7200 |  7201 |741557 | 102.5 |  2263M | 144 |  73 | 171k|  90k| 171k|  90k|   0 |  93 |   0 | 9.593784e+01 | 1.235456e+02 |  28.78%
 4026s|  7300 |  7301 |742948 | 101.3 |  2269M | 144 |  94 | 171k|  90k| 171k|  90k|   0 |  93 |   0 | 9.593805e+01 | 1.235456e+02 |  28.78%
 time | node  | left  |LP iter|LP it/n|mem/heur|mdpt |frac |vars |cons |cols |rows |cuts |confs|strbr|  dualbound   | primalbound  |  gap   
 4064s|  7400 |  7401 |744515 | 100.1 |  2275M | 144 |  94 | 171k|  90k| 171k|  90k|   0 |  93 |   0 | 9.593805e+01 | 1.235456e+02 |  28.78%
 4104s|  7500 |  7501 |755298 | 100.2 |  2283M | 144 | 100 | 171k|  90k| 171k|  90k|   0 |  94 |   0 | 9.593805e+01 | 1.235456e+02 |  28.78%
 4156s|  7600 |  7601 |765138 | 100.2 |  2291M | 144 | 103 | 171k|  90k| 171k|  90k|   0 |  95 |   0 | 9.593837e+01 | 1.235456e+02 |  28.78%
 4178s|  7700 |  7701 |768021 |  99.2 |  2295M | 144 |  91 | 171k|  90k| 171k|  90k|   0 |  96 |   0 | 9.593837e+01 | 1.235456e+02 |  28.78%
 4212s|  7800 |  7801 |774894 |  98.9 |  2302M | 144 |  97 | 171k|  90k| 171k|  90k|   0 |  96 |   0 | 9.593838e+01 | 1.235456e+02 |  28.78%
 4253s|  7900 |  7901 |777055 |  97.9 |  2308M | 144 | 103 | 171k|  90k| 171k|  90k|   0 |  96 |   0 | 9.593838e+01 | 1.235456e+02 |  28.78%
 4273s|  8000 |  8001 |779604 |  97.0 |  2315M | 144 | 108 | 171k|  90k| 171k|  90k|   0 |  97 |   0 | 9.593838e+01 | 1.235456e+02 |  28.78%
 4298s|  8100 |  8101 |784478 |  96.4 |  2321M | 144 |  99 | 171k|  90k| 171k|  90k|   0 | 100 |   0 | 9.593838e+01 | 1.235456e+02 |  28.78%
 4324s|  8200 |  8201 |788027 |  95.6 |  2327M | 144 |  89 | 171k|  90k| 171k|  90k|   0 | 101 |   0 | 9.593838e+01 | 1.235456e+02 |  28.78%
 4370s|  8300 |  8301 |790488 |  94.8 |  2333M | 144 | 108 | 171k|  90k| 171k|  90k|   0 | 101 |   0 | 9.593838e+01 | 1.235456e+02 |  28.78%
 4394s|  8400 |  8401 |794406 |  94.1 |  2340M | 144 |  93 | 171k|  90k| 171k|  90k|   0 | 101 |   0 | 9.593838e+01 | 1.235456e+02 |  28.78%
 4417s|  8500 |  8501 |796829 |  93.3 |  2347M | 144 | 111 | 171k|  90k| 171k|  90k|   0 | 102 |   0 | 9.593838e+01 | 1.235456e+02 |  28.78%
 4442s|  8600 |  8601 |798863 |  92.4 |  2353M | 144 |  97 | 171k|  90k| 171k|  90k|   0 | 103 |   0 | 9.593838e+01 | 1.235456e+02 |  28.78%
 4494s|  8700 |  8701 |810009 |  92.7 |  2360M | 144 |  93 | 171k|  90k| 171k|  90k|   0 | 104 |   0 | 9.593838e+01 | 1.235456e+02 |  28.78%
 4514s|  8800 |  8801 |812550 |  91.9 |  2366M | 144 |  92 | 171k|  90k| 171k|  90k|   0 | 104 |   0 | 9.593838e+01 | 1.235456e+02 |  28.78%
 time | node  | left  |LP iter|LP it/n|mem/heur|mdpt |frac |vars |cons |cols |rows |cuts |confs|strbr|  dualbound   | primalbound  |  gap   
 4542s|  8900 |  8901 |816792 |  91.3 |  2372M | 144 | 105 | 171k|  90k| 171k|  90k|   0 | 106 |   0 | 9.593838e+01 | 1.235456e+02 |  28.78%
 4582s|  9000 |  9001 |818377 |  90.5 |  2378M | 144 | 117 | 171k|  90k| 171k|  90k|   0 | 106 |   0 | 9.593838e+01 | 1.235456e+02 |  28.78%
 4606s|  9100 |  9101 |822293 |  89.9 |  2385M | 144 | 100 | 171k|  90k| 171k|  90k|   0 | 107 |   0 | 9.593838e+01 | 1.235456e+02 |  28.78%
 4627s|  9200 |  9201 |824965 |  89.3 |  2391M | 144 |  92 | 171k|  90k| 171k|  90k|   0 | 108 |   0 | 9.593838e+01 | 1.235456e+02 |  28.78%
 4655s|  9300 |  9301 |829732 |  88.8 |  2398M | 144 | 114 | 171k|  90k| 171k|  90k|   0 | 108 |   0 | 9.593838e+01 | 1.235456e+02 |  28.78%
 4680s|  9400 |  9401 |833278 |  88.2 |  2405M | 144 | 115 | 171k|  90k| 171k|  90k|   0 | 110 |   0 | 9.593840e+01 | 1.235456e+02 |  28.78%
 4717s|  9500 |  9501 |834449 |  87.4 |  2411M | 144 | 100 | 171k|  90k| 171k|  90k|   0 | 110 |   0 | 9.593840e+01 | 1.235456e+02 |  28.78%
 4734s|  9600 |  9601 |836419 |  86.7 |  2418M | 144 |  88 | 171k|  90k| 171k|  90k|   0 | 110 |   0 | 9.593840e+01 | 1.235456e+02 |  28.78%
 4828s|  9700 |  9701 |857002 |  88.0 |  2427M | 144 |  88 | 171k|  90k| 171k|  90k|   0 | 111 |   0 | 9.593840e+01 | 1.235456e+02 |  28.78%
 4847s|  9800 |  9801 |859137 |  87.3 |  2435M | 144 | 117 | 171k|  90k| 171k|  90k|   0 | 112 |   0 | 9.593840e+01 | 1.235456e+02 |  28.78%
 4881s|  9900 |  9901 |867552 |  87.2 |  2441M | 144 |  93 | 171k|  90k| 171k|  90k|   0 | 112 |   0 | 9.593840e+01 | 1.235456e+02 |  28.78%
 4900s| 10000 | 10001 |869576 |  86.6 |  2447M | 144 |  95 | 171k|  90k| 171k|  90k|   0 | 113 |   0 | 9.593840e+01 | 1.235456e+02 |  28.78%
 4953s| 10100 | 10101 |880538 |  86.8 |  2454M | 144 | 109 | 171k|  90k| 171k|  90k|   0 | 113 |   0 | 9.593840e+01 | 1.235456e+02 |  28.78%
 5030s| 10200 | 10201 |881861 |  86.1 |  2461M | 144 | 115 | 171k|  90k| 171k|  90k|   0 | 113 |   0 | 9.593841e+01 | 1.235456e+02 |  28.78%
 5050s| 10300 | 10301 |883578 |  85.4 |  2467M | 144 |  72 | 171k|  90k| 171k|  90k|   0 | 114 |   0 | 9.593880e+01 | 1.235456e+02 |  28.78%
 time | node  | left  |LP iter|LP it/n|mem/heur|mdpt |frac |vars |cons |cols |rows |cuts |confs|strbr|  dualbound   | primalbound  |  gap   
 5067s| 10400 | 10401 |884882 |  84.7 |  2473M | 144 | 104 | 171k|  90k| 171k|  90k|   0 | 114 |   0 | 9.593880e+01 | 1.235456e+02 |  28.78%
 5086s| 10500 | 10501 |886791 |  84.1 |  2481M | 144 | 100 | 171k|  90k| 171k|  90k|   0 | 115 |   0 | 9.593880e+01 | 1.235456e+02 |  28.78%
 5105s| 10600 | 10601 |889166 |  83.5 |  2488M | 144 | 105 | 171k|  90k| 171k|  90k|   0 | 115 |   0 | 9.593880e+01 | 1.235456e+02 |  28.78%
 5127s| 10700 | 10701 |891387 |  83.0 |  2494M | 144 | 107 | 171k|  90k| 171k|  90k|   0 | 115 |   0 | 9.593880e+01 | 1.235456e+02 |  28.78%
 5145s| 10800 | 10801 |892863 |  82.3 |  2500M | 144 |  89 | 171k|  90k| 171k|  90k|   0 | 116 |   0 | 9.593880e+01 | 1.235456e+02 |  28.78%
 5166s| 10900 | 10901 |894891 |  81.7 |  2506M | 144 | 106 | 171k|  90k| 171k|  90k|   0 | 117 |   0 | 9.593880e+01 | 1.235456e+02 |  28.78%
 5184s| 11000 | 11001 |896779 |  81.2 |  2512M | 144 | 105 | 171k|  90k| 171k|  90k|   0 | 117 |   0 | 9.593880e+01 | 1.235456e+02 |  28.78%
 5205s| 11100 | 11101 |900050 |  80.7 |  2519M | 144 | 102 | 171k|  90k| 171k|  90k|   0 | 117 |   0 | 9.593880e+01 | 1.235456e+02 |  28.78%
 5246s| 11200 | 11201 |901941 |  80.2 |  2525M | 144 | 103 | 171k|  90k| 171k|  90k|   0 | 118 |   0 | 9.593880e+01 | 1.235456e+02 |  28.78%
 5264s| 11300 | 11301 |903611 |  79.6 |  2531M | 144 |  92 | 171k|  90k| 171k|  90k|   0 | 118 |   0 | 9.593881e+01 | 1.235456e+02 |  28.78%
 5280s| 11400 | 11401 |904696 |  79.0 |  2537M | 144 |  88 | 171k|  90k| 171k|  90k|   0 | 118 |   0 | 9.593881e+01 | 1.235456e+02 |  28.78%
 5304s| 11500 | 11501 |908013 |  78.6 |  2545M | 144 |  96 | 171k|  90k| 171k|  90k|   0 | 120 |   0 | 9.593881e+01 | 1.235456e+02 |  28.78%
 5337s| 11600 | 11601 |913305 |  78.4 |  2551M | 144 |  90 | 171k|  90k| 171k|  90k|   0 | 120 |   0 | 9.593881e+01 | 1.235456e+02 |  28.78%
 5384s| 11700 | 11701 |923452 |  78.6 |  2557M | 144 | 104 | 171k|  90k| 171k|  90k|   0 | 120 |   0 | 9.593881e+01 | 1.235456e+02 |  28.78%
 5402s| 11800 | 11801 |925037 |  78.1 |  2563M | 144 |  89 | 171k|  90k| 171k|  90k|   0 | 120 |   0 | 9.593881e+01 | 1.235456e+02 |  28.78%
 time | node  | left  |LP iter|LP it/n|mem/heur|mdpt |frac |vars |cons |cols |rows |cuts |confs|strbr|  dualbound   | primalbound  |  gap   
 5454s| 11900 | 11901 |934830 |  78.2 |  2570M | 144 |  93 | 171k|  90k| 171k|  90k|   0 | 120 |   0 | 9.593881e+01 | 1.235456e+02 |  28.78%
 5478s| 12000 | 12001 |938267 |  77.9 |  2576M | 144 |  98 | 171k|  90k| 171k|  90k|   0 | 121 |   0 | 9.593881e+01 | 1.235456e+02 |  28.78%
 5526s| 12100 | 12101 |943034 |  77.6 |  2582M | 144 |  99 | 171k|  90k| 171k|  90k|   0 | 121 |   0 | 9.593881e+01 | 1.235456e+02 |  28.78%
 5546s| 12200 | 12201 |946818 |  77.3 |  2588M | 144 |  89 | 171k|  90k| 171k|  90k|   0 | 122 |   0 | 9.593881e+01 | 1.235456e+02 |  28.78%
 5563s| 12300 | 12301 |948472 |  76.8 |  2594M | 144 |  97 | 171k|  90k| 171k|  90k|   0 | 123 |   0 | 9.593935e+01 | 1.235456e+02 |  28.77%
 5587s| 12400 | 12401 |954743 |  76.7 |  2600M | 144 |  98 | 171k|  90k| 171k|  90k|   0 | 124 |   0 | 9.593935e+01 | 1.235456e+02 |  28.77%
 5605s| 12500 | 12501 |957767 |  76.3 |  2607M | 144 |  89 | 171k|  90k| 171k|  90k|   0 | 125 |   0 | 9.593935e+01 | 1.235456e+02 |  28.77%
 5620s| 12600 | 12601 |959653 |  75.9 |  2613M | 144 | 108 | 171k|  90k| 171k|  90k|   0 | 125 |   0 | 9.593935e+01 | 1.235456e+02 |  28.77%
 5640s| 12700 | 12701 |966244 |  75.8 |  2619M | 144 |  97 | 171k|  90k| 171k|  90k|   0 | 125 |   0 | 9.593935e+01 | 1.235456e+02 |  28.77%
 5668s| 12800 | 12801 |972406 |  75.7 |  2627M | 144 |  98 | 171k|  90k| 171k|  90k|   0 | 125 |   0 | 9.593935e+01 | 1.235456e+02 |  28.77%
 5725s| 12900 | 12901 |989889 |  76.4 |  2634M | 144 | 121 | 171k|  90k| 171k|  90k|   0 | 127 |   0 | 9.593937e+01 | 1.235456e+02 |  28.77%
 5870s| 13000 | 13001 |994969 |  76.2 |  2639M | 144 |  71 | 171k|  90k| 171k|  90k|   0 | 128 |   0 | 9.593938e+01 | 1.235456e+02 |  28.77%
 5885s| 13100 | 13101 |996505 |  75.8 |  2644M | 144 |  91 | 171k|  90k| 171k|  90k|   0 | 128 |   0 | 9.593938e+01 | 1.235456e+02 |  28.77%
 5904s| 13200 | 13201 |  1000k|  75.5 |  2651M | 144 | 100 | 171k|  90k| 171k|  90k|   0 | 129 |   0 | 9.593938e+01 | 1.235456e+02 |  28.77%
 5924s| 13300 | 13301 |  1003k|  75.2 |  2657M | 144 | 102 | 171k|  90k| 171k|  90k|   0 | 130 |   0 | 9.593938e+01 | 1.235456e+02 |  28.77%
 time | node  | left  |LP iter|LP it/n|mem/heur|mdpt |frac |vars |cons |cols |rows |cuts |confs|strbr|  dualbound   | primalbound  |  gap   
 5943s| 13400 | 13401 |  1006k|  74.8 |  2663M | 144 |  96 | 171k|  90k| 171k|  90k|   0 | 132 |   0 | 9.593938e+01 | 1.235456e+02 |  28.77%
 5964s| 13500 | 13501 |  1009k|  74.5 |  2669M | 144 | 108 | 171k|  90k| 171k|  90k|   0 | 132 |   0 | 9.593940e+01 | 1.235456e+02 |  28.77%
 5980s| 13600 | 13601 |  1011k|  74.1 |  2676M | 144 | 114 | 171k|  90k| 171k|  90k|   0 | 133 |   0 | 9.593940e+01 | 1.235456e+02 |  28.77%
 6066s| 13700 | 13701 |  1037k|  75.4 |  2682M | 144 |  90 | 171k|  90k| 171k|  90k|   0 | 133 |   0 | 9.593973e+01 | 1.235456e+02 |  28.77%
 6086s| 13800 | 13801 |  1040k|  75.1 |  2688M | 144 | 111 | 171k|  90k| 171k|  90k|   0 | 135 |   0 | 9.593973e+01 | 1.235456e+02 |  28.77%
 6104s| 13900 | 13901 |  1043k|  74.8 |  2694M | 144 |  92 | 171k|  90k| 171k|  90k|   0 | 136 |   0 | 9.593973e+01 | 1.235456e+02 |  28.77%
 6118s| 14000 | 14001 |  1045k|  74.4 |  2700M | 144 | 111 | 171k|  90k| 171k|  90k|   0 | 136 |   0 | 9.593973e+01 | 1.235456e+02 |  28.77%
 6147s| 14100 | 14101 |  1052k|  74.4 |  2707M | 144 | 116 | 171k|  90k| 171k|  90k|   0 | 137 |   0 | 9.593973e+01 | 1.235456e+02 |  28.77%
 6196s| 14200 | 14201 |  1067k|  74.9 |  2718M | 144 | 102 | 171k|  90k| 171k|  90k|   0 | 137 |   0 | 9.593973e+01 | 1.235456e+02 |  28.77%
 6216s| 14300 | 14301 |  1071k|  74.6 |  2720M | 144 | 102 | 171k|  90k| 171k|  90k|   0 | 138 |   0 | 9.593973e+01 | 1.235456e+02 |  28.77%
 6231s| 14400 | 14401 |  1072k|  74.2 |  2726M | 144 |  98 | 171k|  90k| 171k|  90k|   0 | 138 |   0 | 9.593978e+01 | 1.235456e+02 |  28.77%
 6249s| 14500 | 14501 |  1075k|  73.9 |  2733M | 144 | 103 | 171k|  90k| 171k|  90k|   0 | 138 |   0 | 9.593978e+01 | 1.235456e+02 |  28.77%
 6266s| 14600 | 14601 |  1077k|  73.6 |  2739M | 144 | 102 | 171k|  90k| 171k|  90k|   0 | 138 |   0 | 9.593978e+01 | 1.235456e+02 |  28.77%
 6280s| 14700 | 14701 |  1079k|  73.2 |  2745M | 144 | 113 | 171k|  90k| 171k|  90k|   0 | 138 |   0 | 9.593978e+01 | 1.235456e+02 |  28.77%
 6296s| 14800 | 14801 |  1081k|  72.8 |  2751M | 144 |  94 | 171k|  90k| 171k|  90k|   0 | 139 |   0 | 9.594015e+01 | 1.235456e+02 |  28.77%
 time | node  | left  |LP iter|LP it/n|mem/heur|mdpt |frac |vars |cons |cols |rows |cuts |confs|strbr|  dualbound   | primalbound  |  gap   
 6332s| 14900 | 14901 |  1092k|  73.1 |  2757M | 144 |  98 | 171k|  90k| 171k|  90k|   0 | 141 |   0 | 9.594034e+01 | 1.235456e+02 |  28.77%
 6356s| 15000 | 15001 |  1097k|  72.9 |  2764M | 144 |  83 | 171k|  90k| 171k|  90k|   0 | 143 |   0 | 9.594034e+01 | 1.235456e+02 |  28.77%
 6377s| 15100 | 15101 |  1100k|  72.6 |  2770M | 144 | 106 | 171k|  90k| 171k|  90k|   0 | 145 |   0 | 9.594036e+01 | 1.235456e+02 |  28.77%
 6397s| 15200 | 15201 |  1103k|  72.3 |  2776M | 144 | 101 | 171k|  90k| 171k|  90k|   0 | 147 |   0 | 9.594036e+01 | 1.235456e+02 |  28.77%
 6412s| 15300 | 15301 |  1104k|  71.9 |  2782M | 144 |  95 | 171k|  90k| 171k|  90k|   0 | 148 |   0 | 9.594037e+01 | 1.235456e+02 |  28.77%
 6433s| 15400 | 15401 |  1107k|  71.7 |  2789M | 144 |  88 | 171k|  90k| 171k|  90k|   0 | 148 |   0 | 9.594037e+01 | 1.235456e+02 |  28.77%
 6460s| 15500 | 15501 |  1115k|  71.7 |  2795M | 144 | 106 | 171k|  90k| 171k|  90k|   0 | 150 |   0 | 9.594037e+01 | 1.235456e+02 |  28.77%
 6519s| 15600 | 15601 |  1131k|  72.3 |  2803M | 144 |  99 | 171k|  90k| 171k|  90k|   0 | 154 |   0 | 9.594037e+01 | 1.235456e+02 |  28.77%
 6538s| 15700 | 15701 |  1134k|  72.0 |  2806M | 144 | 112 | 171k|  90k| 171k|  90k|   0 | 154 |   0 | 9.594037e+01 | 1.235456e+02 |  28.77%
 6552s| 15800 | 15801 |  1135k|  71.6 |  2812M | 144 |  87 | 171k|  90k| 171k|  90k|   0 | 154 |   0 | 9.594037e+01 | 1.235456e+02 |  28.77%
 6574s| 15900 | 15901 |  1140k|  71.5 |  2820M | 144 |  92 | 171k|  90k| 171k|  90k|   0 | 155 |   0 | 9.594037e+01 | 1.235456e+02 |  28.77%
 6602s| 16000 | 16001 |  1146k|  71.4 |  2826M | 144 | 100 | 171k|  90k| 171k|  90k|   0 | 156 |   0 | 9.594037e+01 | 1.235456e+02 |  28.77%
 6623s| 16100 | 16101 |  1150k|  71.2 |  2832M | 144 |  94 | 171k|  90k| 171k|  90k|   0 | 156 |   0 | 9.594037e+01 | 1.235456e+02 |  28.77%
 6651s| 16200 | 16201 |  1157k|  71.2 |  2839M | 144 |  96 | 171k|  90k| 171k|  90k|   0 | 157 |   0 | 9.594037e+01 | 1.235456e+02 |  28.77%
 6668s| 16300 | 16301 |  1159k|  70.9 |  2844M | 144 |  95 | 171k|  90k| 171k|  90k|   0 | 158 |   0 | 9.594069e+01 | 1.235456e+02 |  28.77%
 time | node  | left  |LP iter|LP it/n|mem/heur|mdpt |frac |vars |cons |cols |rows |cuts |confs|strbr|  dualbound   | primalbound  |  gap   
 6689s| 16400 | 16401 |  1163k|  70.7 |  2851M | 144 |  90 | 171k|  90k| 171k|  90k|   0 | 159 |   0 | 9.594069e+01 | 1.235456e+02 |  28.77%
 6708s| 16500 | 16501 |  1166k|  70.5 |  2857M | 144 |  96 | 171k|  90k| 171k|  90k|   0 | 159 |   0 | 9.594070e+01 | 1.235456e+02 |  28.77%
 6724s| 16600 | 16601 |  1168k|  70.1 |  2863M | 144 |  96 | 171k|  90k| 171k|  90k|   0 | 159 |   0 | 9.594070e+01 | 1.235456e+02 |  28.77%
 6739s| 16700 | 16701 |  1169k|  69.8 |  2869M | 144 |  97 | 171k|  90k| 171k|  90k|   0 | 159 |   0 | 9.594070e+01 | 1.235456e+02 |  28.77%
 6755s| 16800 | 16801 |  1171k|  69.5 |  2876M | 144 | 108 | 171k|  90k| 171k|  90k|   0 | 159 |   0 | 9.594111e+01 | 1.235456e+02 |  28.77%
 6770s| 16900 | 16901 |  1172k|  69.2 |  2881M | 144 |  94 | 171k|  90k| 171k|  90k|   0 | 159 |   0 | 9.594133e+01 | 1.235456e+02 |  28.77%
 6794s| 17000 | 17001 |  1178k|  69.1 |  2887M | 144 |  88 | 171k|  90k| 171k|  90k|   0 | 160 |   0 | 9.594133e+01 | 1.235456e+02 |  28.77%
 6809s| 17100 | 17101 |  1179k|  68.8 |  2894M | 144 | 107 | 171k|  90k| 171k|  90k|   0 | 160 |   0 | 9.594133e+01 | 1.235456e+02 |  28.77%
 6856s| 17200 | 17201 |  1181k|  68.5 |  2900M | 144 |  96 | 171k|  90k| 171k|  90k|   0 | 160 |   0 | 9.594133e+01 | 1.235456e+02 |  28.77%
 6893s| 17300 | 17301 |  1191k|  68.6 |  2906M | 144 | 101 | 171k|  90k| 171k|  90k|   0 | 160 |   0 | 9.594134e+01 | 1.235456e+02 |  28.77%
 6915s| 17400 | 17401 |  1194k|  68.4 |  2912M | 144 |  84 | 171k|  90k| 171k|  90k|   0 | 161 |   0 | 9.594134e+01 | 1.235456e+02 |  28.77%
 6936s| 17500 | 17501 |  1197k|  68.2 |  2919M | 144 | 105 | 171k|  90k| 171k|  90k|   0 | 161 |   0 | 9.594134e+01 | 1.235456e+02 |  28.77%
 6952s| 17600 | 17601 |  1199k|  67.9 |  2925M | 144 |  96 | 171k|  90k| 171k|  90k|   0 | 161 |   0 | 9.594167e+01 | 1.235456e+02 |  28.77%
 6973s| 17700 | 17701 |  1202k|  67.7 |  2931M | 144 | 115 | 171k|  90k| 171k|  90k|   0 | 163 |   0 | 9.594208e+01 | 1.235456e+02 |  28.77%
 7000s| 17800 | 17801 |  1208k|  67.7 |  2937M | 144 |  95 | 171k|  90k| 171k|  90k|   0 | 167 |   0 | 9.594208e+01 | 1.235456e+02 |  28.77%
 time | node  | left  |LP iter|LP it/n|mem/heur|mdpt |frac |vars |cons |cols |rows |cuts |confs|strbr|  dualbound   | primalbound  |  gap   
 7025s| 17900 | 17901 |  1214k|  67.6 |  2942M | 144 |  92 | 171k|  90k| 171k|  90k|   0 | 168 |   0 | 9.594208e+01 | 1.235456e+02 |  28.77%
 7114s| 18000 | 18001 |  1219k|  67.6 |  2949M | 144 | 107 | 171k|  90k| 171k|  90k|   0 | 172 |   0 | 9.594208e+01 | 1.235456e+02 |  28.77%
 7133s| 18100 | 18101 |  1221k|  67.3 |  2955M | 144 |  94 | 171k|  90k| 171k|  90k|   0 | 173 |   0 | 9.594209e+01 | 1.235456e+02 |  28.77%
 7149s| 18200 | 18201 |  1223k|  67.0 |  2961M | 144 |  98 | 171k|  90k| 171k|  90k|   0 | 173 |   0 | 9.594209e+01 | 1.235456e+02 |  28.77%
 7163s| 18300 | 18301 |  1224k|  66.7 |  2968M | 144 | 106 | 171k|  90k| 171k|  90k|   0 | 173 |   0 | 9.594209e+01 | 1.235456e+02 |  28.77%
 7181s| 18400 | 18401 |  1227k|  66.5 |  2975M | 144 | 101 | 171k|  90k| 171k|  90k|   0 | 174 |   0 | 9.594230e+01 | 1.235456e+02 |  28.77%
 7192s| 18500 | 18501 |  1228k|  66.2 |  2981M | 144 | 103 | 171k|  90k| 171k|  90k|   0 | 174 |   0 | 9.594305e+01 | 1.235456e+02 |  28.77%

SCIP Status        : solving was interrupted [time limit reached]
Solving Time (sec) : 7200.01
Solving Nodes      : 18545
Primal Bound       : +1.23545586532200e+02 (441 solutions)
Dual Bound         : +9.59773227018688e+01
Gap                : 28.72 %

Number of variables fixed to 0 by isomorphism pruning:	     0
Number of variables fixed to 1 by isomorphism pruning:	     0
@04 1686574182
